--- Job TGIModel_SolucionOptima.gms Start 04/29/24 19:30:30 46.4.0 2cbe6e3b WEX-WEI x86 64bit/MS Windows
--- Applying:
    C:\GAMS\46\gmsprmNT.txt
--- GAMS Parameters defined
    Input "C:\Users\camil\OneDrive\Escritorio\PROYECTO FINAL\TGIModel_SolucionOptima.gms"
    PageSize 0
    ScrDir "C:\Users\camil\OneDrive\Escritorio\PROYECTO FINAL\225a\"
    SysDir C:\GAMS\46\
    LogOption 3
    ErrMsg 1
    ErrorLog 99
    IDE 1
    LstTitleLeftAligned 1
Licensee: GAMS Demo, for EULA and demo limitations see   G240131/0001CB-GEN
          https://www.gams.com/latest/docs/UG%5FLicense.html         DC0000
          C:\GAMS\46\gamslice.txt
          Demo license for demonstration and instructional purposes only
Processor information: 1 socket(s), 6 core(s), and 12 thread(s) available
GAMS 46.4.0   Copyright (C) 1987-2024 GAMS Development. All rights reserved
--- Starting compilation
--- TGIModel_SolucionOptima.gms(133) 3 Mb
--- Starting execution: elapsed 0:00:00.005
--- TGIModel_SolucionOptima.gms(126) 4 Mb
--- Generating LP model TGIMODEL
--- TGIModel_SolucionOptima.gms(131) 4 Mb
---   51 rows  101 columns  271 non-zeroes
--- Range statistics (absolute non-zero finite values)
--- RHS       [min, max] : [ 1.971E+02, 1.212E+03] - Zero values observed as well
--- Bound     [min, max] : [        NA,        NA] - Zero values observed as well
--- Matrix    [min, max] : [ 1.000E+00, 1.000E+05]
--- Executing CPLEX (Solvelink=2): elapsed 0:00:00.011

IBM ILOG CPLEX   46.4.0 2cbe6e3b Apr 2, 2024           WEI x86 64bit/MS Window

*** This solver runs with a demo license. No commercial use.
--- GMO setup time: 0.00s
--- GMO memory 0.52 Mb (peak 0.52 Mb)
--- Dictionary memory 0.00 Mb
--- Cplex 22.1.1.0 link memory 0.00 Mb (peak 0.01 Mb)
--- Starting Cplex

Version identifier: 22.1.1.0 | 2022-11-27 | 9160aff4d
CPXPARAM_Advance                                 0
CPXPARAM_MIP_Display                             4
CPXPARAM_MIP_Pool_Capacity                       0
CPXPARAM_MIP_Tolerances_AbsMIPGap                0
Tried aggregator 1 time.
LP Presolve eliminated 20 rows and 71 columns.
Aggregator did 30 substitutions.
All rows and columns eliminated.
Presolve time = 0.00 sec. (0.05 ticks)

--- LP status (1): optimal.
--- Cplex Time: 0.00sec (det. 0.07 ticks)


Optimal solution found
Objective:        10991.589000

--- Reading solution for model TGIMODEL
*** Status: Normal completion
--- Job TGIModel_SolucionOptima.gms Stop 04/29/24 19:30:30 elapsed 0:00:00.033
